num_offers = 20;
num_halls = 10;
start=[2,31,82,40,41,12,52,7,15,36,6,42,34,1,17,25,26,14,42,43];
end=[3,93,93,78,70,52,72,60,80,59,37,100,97,81,18,96,94,69,61,49];
price=[149,2250,470,1993,1787,2895,1707,3218,6197,1779,805,5057,4147,7801,80,3596,3219,4860,1946,256];
requirement=[759,269,375,358,994,620,486,309,535,215,508,375,632,774,730,798,738,442,906,490];
capacity=[971,426,577,930,821,971,634,765,301,993];
